networks/zoo_68_897/zoo_68_897-lower.txt
Number of groups: 37
Flow 13: {24 17 0} {17 19 1} {19 53 2} 
Flow 87: {5 8 0} {8 16 1} {16 7 2} {7 41 3} 
Flow 140: {6 25 0} {25 14 1} {14 33 2} {33 67 3} 
Flow 159: {2 1 0} {1 11 1} {11 15 2} {15 20 3} {20 54 4} 
Flow 160: {22 21 0} {21 55 1} 
Flow 162: {7 22 0} {22 23 1} 
Flow 186: {8 24 0} {24 15 1} {15 49 2} 
Flow 240: {10 19 0} {19 6 1} {6 40 2} 
Flow 255: {25 32 0} {32 31 1} {31 65 2} 
Flow 268: {11 12 0} {12 13 1} {13 47 2} 
Flow 271: {1 2 0} {2 7 1} {7 16 2} {16 50 3} 
Flow 292: {12 11 0} {11 1 1} {1 4 2} {4 3 3} {3 37 4} 
Flow 301: {13 24 0} {24 18 1} {18 52 2} 
Flow 364: {32 24 0} {24 1 1} {1 21 2} {21 22 3} {22 56 4} 
Flow 370: {31 29 0} {29 28 1} {28 62 2} 
Flow 376: {14 25 0} {25 34 1} {34 68 2} 
Flow 384: {15 24 0} {24 8 1} {8 42 2} 
Flow 440: {18 20 0} {20 15 1} {15 11 2} {11 45 3} 
Flow 453: {18 24 0} {24 32 1} {32 26 2} {26 60 3} 
Flow 471: {17 24 0} {24 13 1} {13 12 2} {12 46 3} 
Flow 477: {19 17 0} {17 18 1} 
Flow 505: {20 18 0} {18 17 1} {17 51 2} 
Flow 540: {21 1 0} {1 23 1} {23 57 2} 
Flow 547: {4 28 0} {28 27 1} {27 30 2} {30 64 3} 
Flow 553: {22 7 0} {7 2 1} {2 36 2} 
Flow 582: {16 8 0} {8 5 1} {5 9 2} {9 34 3} 
Flow 583: {23 1 2} {1 24 3} {24 58 4} 
Flow 651: {26 32 0} {32 3 1} {3 4 2} {4 38 3} 
Flow 652: {26 6 0} {6 19 1} {19 9 2} {9 5 3} {5 39 4} 
Flow 679: {27 28 0} {28 4 1} {4 1 2} {1 35 3} 
Flow 705: {28 29 0} {29 63 1} 
Flow 708: {30 31 0} {31 32 1} {32 66 2} 
Flow 723: {29 31 0} {31 33 1} {33 14 2} {14 48 3} 
Flow 734: {3 32 0} {32 25 1} {25 59 2} 
Flow 846: {33 34 0} {34 9 1} {9 19 2} {19 10 3} {10 44 4} 
Flow 890: {34 25 0} {25 6 1} {6 26 2} 
Flow 891: {34 33 0} {33 31 1} {31 30 2} {30 27 3} {27 61 4} 
Time taken running everything: 3 seconds
