networks/zoo_68_897/zoo_68_897-lower.sol
<?xml version = "1.0" encoding="UTF-8" standalone="yes"?>
<CPLEXSolution version="1.2">
 <header
   problemName="networks/zoo_68_897/zoo_68_897-lower.lp"
   solutionName="incumbent"
   solutionIndex="-1"
   objectiveValue="36"
   solutionTypeValue="3"
   solutionTypeString="primal"
   solutionStatusValue="101"
   solutionStatusString="integer optimal solution"
   solutionMethodString="mip"
   primalFeasible="1"
   dualFeasible="1"
   MIPNodes="0"
   MIPIterations="2452"
   writeLevel="3"/>
 <quality
   epInt="1.0000000000000001e-05"
   epRHS="9.9999999999999995e-07"
   maxIntInfeas="0"
   maxPrimalInfeas="0"
   maxX="1"
   maxSlack="1"/>
 <variables>
  <variable name="Y(24,1)" index="1541" value="1"/>
  <variable name="Y(60,3)" index="3955" value="1"/>
  <variable name="Y(68,16)" index="4504" value="1"/>
  <variable name="Y(110,33)" index="7335" value="1"/>
  <variable name="Y(129,20)" index="8595" value="1"/>
  <variable name="Y(160,21)" index="10673" value="1"/>
  <variable name="Y(162,22)" index="10808" value="1"/>
  <variable name="Y(188,17)" index="12545" value="1"/>
  <variable name="Y(252,6)" index="16822" value="1"/>
  <variable name="Y(270,15)" index="18037" value="1"/>
  <variable name="Y(301,18)" index="20117" value="1"/>
  <variable name="Y(323,11)" index="21584" value="1"/>
  <variable name="Y(369,27)" index="24682" value="1"/>
  <variable name="Y(397,23)" index="26554" value="1"/>
  <variable name="Y(422,22)" index="28228" value="1"/>
  <variable name="Y(453,26)" index="30309" value="1"/>
  <variable name="Y(467,7)" index="31228" value="1"/>
  <variable name="Y(501,13)" index="33512" value="1"/>
  <variable name="Y(507,19)" index="33920" value="1"/>
  <variable name="Y(547,30)" index="36611" value="1"/>
  <variable name="Y(553,2)" index="36985" value="1"/>
  <variable name="Y(559,8)" index="37393" value="1"/>
  <variable name="Y(583,24)" index="39017" value="1"/>
  <variable name="Y(647,34)" index="43315" value="1"/>
  <variable name="Y(660,14)" index="44166" value="1"/>
  <variable name="Y(666,15)" index="44569" value="1"/>
  <variable name="Y(689,12)" index="46107" value="1"/>
  <variable name="Y(739,31)" index="49476" value="1"/>
  <variable name="Y(740,32)" index="49544" value="1"/>
  <variable name="Y(751,10)" index="50259" value="1"/>
  <variable name="Y(797,25)" index="53356" value="1"/>
  <variable name="Y(800,28)" index="53560" value="1"/>
  <variable name="Y(810,5)" index="54207" value="1"/>
  <variable name="Y(833,29)" index="55772" value="1"/>
  <variable name="Y(843,6)" index="56419" value="1"/>
  <variable name="Y(869,4)" index="58159" value="1"/>
  <variable name="X(1,2,68)" index="60166" value="1"/>
  <variable name="X(1,4,547)" index="61542" value="1"/>
  <variable name="X(1,11,689)" index="62581" value="1"/>
  <variable name="X(1,21,422)" index="63211" value="1"/>
  <variable name="X(1,23,397)" index="64083" value="1"/>
  <variable name="X(1,24,583)" index="65166" value="1"/>
  <variable name="X(1,35,24)" index="65504" value="1"/>
  <variable name="X(2,1,24)" index="66401" value="1"/>
  <variable name="X(2,7,68)" index="67342" value="1"/>
  <variable name="X(2,36,553)" index="68724" value="1"/>
  <variable name="X(3,4,869)" index="69937" value="1"/>
  <variable name="X(3,32,740)" index="70705" value="1"/>
  <variable name="X(3,37,60)" index="70922" value="1"/>
  <variable name="X(4,1,689)" index="72448" value="1"/>
  <variable name="X(4,3,60)" index="72716" value="1"/>
  <variable name="X(4,28,547)" index="74100" value="1"/>
  <variable name="X(4,38,869)" index="75319" value="1"/>
  <variable name="X(5,8,467)" index="75814" value="1"/>
  <variable name="X(5,9,110)" index="76354" value="1"/>
  <variable name="X(5,39,810)" index="77951" value="1"/>
  <variable name="X(6,19,129)" index="78167" value="1"/>
  <variable name="X(6,25,660)" index="79595" value="1"/>
  <variable name="X(6,26,252)" index="80084" value="1"/>
  <variable name="X(6,40,843)" index="81572" value="1"/>
  <variable name="X(7,2,553)" index="82179" value="1"/>
  <variable name="X(7,16,68)" index="82591" value="1"/>
  <variable name="X(7,22,162)" index="83582" value="1"/>
  <variable name="X(7,41,467)" index="84784" value="1"/>
  <variable name="X(8,5,810)" index="86024" value="1"/>
  <variable name="X(8,16,467)" index="86578" value="1"/>
  <variable name="X(8,24,188)" index="87196" value="1"/>
  <variable name="X(8,42,559)" index="88464" value="1"/>
  <variable name="X(9,5,467)" index="89269" value="1"/>
  <variable name="X(9,19,751)" index="90450" value="1"/>
  <variable name="X(9,34,110)" index="90706" value="1"/>
  <variable name="X(10,19,252)" index="91745" value="1"/>
  <variable name="X(10,44,751)" index="93141" value="1"/>
  <variable name="X(11,1,397)" index="93684" value="1"/>
  <variable name="X(11,12,689)" index="94873" value="1"/>
  <variable name="X(11,15,270)" index="95351" value="1"/>
  <variable name="X(11,45,323)" index="96301" value="1"/>
  <variable name="X(12,11,323)" index="97198" value="1"/>
  <variable name="X(12,13,301)" index="98073" value="1"/>
  <variable name="X(12,46,689)" index="99358" value="1"/>
  <variable name="X(13,12,323)" index="99889" value="1"/>
  <variable name="X(13,24,301)" index="100764" value="1"/>
  <variable name="X(13,47,501)" index="101861" value="1"/>
  <variable name="X(14,25,843)" index="103100" value="1"/>
  <variable name="X(14,33,369)" index="103523" value="1"/>
  <variable name="X(14,48,660)" index="104711" value="1"/>
  <variable name="X(15,11,397)" index="105345" value="1"/>
  <variable name="X(15,20,666)" index="106511" value="1"/>
  <variable name="X(15,24,501)" index="107243" value="1"/>
  <variable name="X(15,49,270)" index="107909" value="1"/>
  <variable name="X(16,7,467)" index="109003" value="1"/>
  <variable name="X(16,8,559)" index="109992" value="1"/>
  <variable name="X(16,50,68)" index="110398" value="1"/>
  <variable name="X(17,18,129)" index="111356" value="1"/>
  <variable name="X(17,19,507)" index="112631" value="1"/>
  <variable name="X(17,24,422)" index="113443" value="1"/>
  <variable name="X(17,51,188)" index="114106" value="1"/>
  <variable name="X(18,17,507)" index="115322" value="1"/>
  <variable name="X(18,20,129)" index="115841" value="1"/>
  <variable name="X(18,24,453)" index="117062" value="1"/>
  <variable name="X(18,52,301)" index="117807" value="1"/>
  <variable name="X(19,6,252)" index="118655" value="1"/>
  <variable name="X(19,9,467)" index="119767" value="1"/>
  <variable name="X(19,10,751)" index="120948" value="1"/>
  <variable name="X(19,17,129)" index="121223" value="1"/>
  <variable name="X(19,53,507)" index="122498" value="1"/>
  <variable name="X(20,15,501)" index="123389" value="1"/>
  <variable name="X(20,18,507)" index="124292" value="1"/>
  <variable name="X(20,54,129)" index="124811" value="1"/>
  <variable name="X(21,1,547)" index="126126" value="1"/>
  <variable name="X(21,22,422)" index="126898" value="1"/>
  <variable name="X(21,55,160)" index="127533" value="1"/>
  <variable name="X(22,7,553)" index="128823" value="1"/>
  <variable name="X(22,21,160)" index="129327" value="1"/>
  <variable name="X(22,23,162)" index="130226" value="1"/>
  <variable name="X(22,56,422)" index="131383" value="1"/>
  <variable name="X(23,1,583)" index="132441" value="1"/>
  <variable name="X(23,57,397)" index="133152" value="1"/>
  <variable name="X(24,1,422)" index="134074" value="1"/>
  <variable name="X(24,8,810)" index="135359" value="1"/>
  <variable name="X(24,13,501)" index="135947" value="1"/>
  <variable name="X(24,15,666)" index="137009" value="1"/>
  <variable name="X(24,17,188)" index="137428" value="1"/>
  <variable name="X(24,18,301)" index="138438" value="1"/>
  <variable name="X(24,32,453)" index="139487" value="1"/>
  <variable name="X(24,58,583)" index="140514" value="1"/>
  <variable name="X(25,6,843)" index="141671" value="1"/>
  <variable name="X(25,14,660)" index="142385" value="1"/>
  <variable name="X(25,32,869)" index="143491" value="1"/>
  <variable name="X(25,34,647)" index="144166" value="1"/>
  <variable name="X(25,59,797)" index="145213" value="1"/>
  <variable name="X(26,6,660)" index="145973" value="1"/>
  <variable name="X(26,32,666)" index="146876" value="1"/>
  <variable name="X(26,60,453)" index="147560" value="1"/>
  <variable name="X(27,28,689)" index="148693" value="1"/>
  <variable name="X(27,30,547)" index="149448" value="1"/>
  <variable name="X(27,61,369)" index="150167" value="1"/>
  <variable name="X(28,4,689)" index="151384" value="1"/>
  <variable name="X(28,27,547)" index="152139" value="1"/>
  <variable name="X(28,29,739)" index="153228" value="1"/>
  <variable name="X(28,62,800)" index="154186" value="1"/>
  <variable name="X(29,28,800)" index="155083" value="1"/>
  <variable name="X(29,31,739)" index="155919" value="1"/>
  <variable name="X(29,63,833)" index="156910" value="1"/>
  <variable name="X(30,27,369)" index="157343" value="1"/>
  <variable name="X(30,31,751)" index="158622" value="1"/>
  <variable name="X(30,64,547)" index="159315" value="1"/>
  <variable name="X(31,29,833)" index="160498" value="1"/>
  <variable name="X(31,30,369)" index="160931" value="1"/>
  <variable name="X(31,32,797)" index="162256" value="1"/>
  <variable name="X(31,33,751)" index="163107" value="1"/>
  <variable name="X(31,65,739)" index="163992" value="1"/>
  <variable name="X(32,3,869)" index="165019" value="1"/>
  <variable name="X(32,24,666)" index="165713" value="1"/>
  <variable name="X(32,25,797)" index="166741" value="1"/>
  <variable name="X(32,26,453)" index="167294" value="1"/>
  <variable name="X(32,31,833)" index="168571" value="1"/>
  <variable name="X(32,66,740)" index="169375" value="1"/>
  <variable name="X(33,14,843)" index="170375" value="1"/>
  <variable name="X(33,31,369)" index="170798" value="1"/>
  <variable name="X(33,34,751)" index="172077" value="1"/>
  <variable name="X(33,67,110)" index="172333" value="1"/>
  <variable name="X(34,9,751)" index="173871" value="1"/>
  <variable name="X(34,25,869)" index="174886" value="1"/>
  <variable name="X(34,33,110)" index="175024" value="1"/>
  <variable name="X(34,68,647)" index="176458" value="1"/>
 </variables>
</CPLEXSolution>
